Minimize
 obj:
0.25 y_1_3_1_2 + 0.25 y_1_3_4_2 + 0.25 y_1_3_4_3 + 0.479167 y_4_8_1_1 + 0.0208333 y_4_8_1_2 + 0.354167 y_4_9_1_1 + 0.479167 y_4_8_2_2 + 0.145833 y_4_9_2_1 + 0.354167 y_4_9_2_2 + 0.208333 y_4_6_3_2
 + 0.375 y_4_7_3_2 + 0.479167 y_4_8_3_2 + 0.479167 y_4_8_3_3 + 0.145833 y_4_9_3_1 + 0.354167 y_4_9_3_2 + 0.354167 y_4_9_3_3 + 0.145833 y_4_9_3_4 + 0.229167 y_4_5_4_2 + 0.208333 y_4_6_4_1 + 0.791667 y_4_6_4_2
 + 0.375 y_4_7_4_1 + 0.375 y_4_7_4_2 + 0.479167 y_4_8_4_1 + 0.0208333 y_4_8_4_2 + 0.0208333 y_4_8_4_3 + 0.479167 y_4_8_4_4 + 0.354167 y_4_9_4_1 + 0.354167 y_4_9_4_4 + 0.177083 y_5_6_1_1 + 0.53125 y_5_6_1_4
 + 0.208333 y_5_7_1_1 + 0.208333 y_5_7_1_4 + 0.0729167 y_5_6_2_1 + 0.177083 y_5_6_2_2 + 0.53125 y_5_6_2_3 + 0.21875 y_5_6_2_4 + 0.291667 y_5_7_2_1 + 0.208333 y_5_7_2_2 + 0.208333 y_5_7_2_3 + 0.291667 y_5_7_2_4
 + 0.71875 y_5_8_2_4 + 0.46875 y_5_9_2_4 + 0.177083 y_5_6_3_3 + 0.0729167 y_5_6_3_4 + 0.208333 y_5_7_3_3 + 0.291667 y_5_7_3_4 + 0.177083 y_5_6_4_4 + 0.208333 y_5_7_4_4 + 0.53125 y_6_7_1_1 + 0.125 y_6_8_1_1
 + 0.125 y_6_8_1_4 + 0.21875 y_6_7_2_1 + 0.53125 y_6_7_2_2 + 0.375 y_6_8_2_1 + 0.125 y_6_8_2_2 + 0.125 y_6_8_2_3 + 0.375 y_6_8_2_4 + 0.458333 y_6_9_2_1 + 0.458333 y_6_9_2_4 + 0.0729167 y_6_7_3_1
 + 0.177083 y_6_7_3_2 + 0.53125 y_6_7_3_3 + 0.21875 y_6_7_3_4 + 0.125 y_6_8_3_3 + 0.375 y_6_8_3_4 + 0.458333 y_6_9_3_4 + 0.177083 y_6_7_4_1 + 0.53125 y_6_7_4_4 + 0.125 y_6_8_4_4 + 0.135417 y_7_8_1_1
 + 0.40625 y_7_8_1_4 + 0.0520833 y_7_9_1_1 + 0.15625 y_7_9_1_4 + 0.114583 y_7_8_2_1 + 0.135417 y_7_8_2_2 + 0.40625 y_7_8_2_3 + 0.34375 y_7_8_2_4 + 0.197917 y_7_9_2_1 + 0.0520833 y_7_9_2_2 + 0.15625 y_7_9_2_3
 + 0.59375 y_7_9_2_4 + 0.135417 y_7_8_3_3 + 0.114583 y_7_8_3_4 + 0.0520833 y_7_9_3_3 + 0.197917 y_7_9_3_4 + 0.135417 y_7_8_4_4 + 0.0520833 y_7_9_4_4 + 0.666667 y_8_9_1_1 + 0.333333 y_8_9_2_1 + 0.666667 y_8_9_2_2
 + 0.666667 y_8_9_3_3 + 0.333333 y_8_9_3_4 + 0.666667 y_8_9_4_4

Subject To
 c1_1_3_1_2: x_1_1 + x_3_2 - y_1_3_1_2 <= 1
 c1_1_3_4_2: x_1_4 + x_3_2 - y_1_3_4_2 <= 1
 c1_1_3_4_3: x_1_4 + x_3_3 - y_1_3_4_3 <= 1
 c1_4_8_1_1: x_4_1 + x_8_1 - y_4_8_1_1 <= 1
 c1_4_8_1_2: x_4_1 + x_8_2 - y_4_8_1_2 <= 1
 c1_4_9_1_1: x_4_1 + x_9_1 - y_4_9_1_1 <= 1
 c1_4_8_2_2: x_4_2 + x_8_2 - y_4_8_2_2 <= 1
 c1_4_9_2_1: x_4_2 + x_9_1 - y_4_9_2_1 <= 1
 c1_4_9_2_2: x_4_2 + x_9_2 - y_4_9_2_2 <= 1
 c1_4_6_3_2: x_4_3 + x_6_2 - y_4_6_3_2 <= 1
 c1_4_7_3_2: x_4_3 + x_7_2 - y_4_7_3_2 <= 1
 c1_4_8_3_2: x_4_3 + x_8_2 - y_4_8_3_2 <= 1
 c1_4_8_3_3: x_4_3 + x_8_3 - y_4_8_3_3 <= 1
 c1_4_9_3_1: x_4_3 + x_9_1 - y_4_9_3_1 <= 1
 c1_4_9_3_2: x_4_3 + x_9_2 - y_4_9_3_2 <= 1
 c1_4_9_3_3: x_4_3 + x_9_3 - y_4_9_3_3 <= 1
 c1_4_9_3_4: x_4_3 + x_9_4 - y_4_9_3_4 <= 1
 c1_4_5_4_2: x_4_4 + x_5_2 - y_4_5_4_2 <= 1
 c1_4_6_4_1: x_4_4 + x_6_1 - y_4_6_4_1 <= 1
 c1_4_6_4_2: x_4_4 + x_6_2 - y_4_6_4_2 <= 1
 c1_4_7_4_1: x_4_4 + x_7_1 - y_4_7_4_1 <= 1
 c1_4_7_4_2: x_4_4 + x_7_2 - y_4_7_4_2 <= 1
 c1_4_8_4_1: x_4_4 + x_8_1 - y_4_8_4_1 <= 1
 c1_4_8_4_2: x_4_4 + x_8_2 - y_4_8_4_2 <= 1
 c1_4_8_4_3: x_4_4 + x_8_3 - y_4_8_4_3 <= 1
 c1_4_8_4_4: x_4_4 + x_8_4 - y_4_8_4_4 <= 1
 c1_4_9_4_1: x_4_4 + x_9_1 - y_4_9_4_1 <= 1
 c1_4_9_4_4: x_4_4 + x_9_4 - y_4_9_4_4 <= 1
 c1_5_6_1_1: x_5_1 + x_6_1 - y_5_6_1_1 <= 1
 c1_5_6_1_4: x_5_1 + x_6_4 - y_5_6_1_4 <= 1
 c1_5_7_1_1: x_5_1 + x_7_1 - y_5_7_1_1 <= 1
 c1_5_7_1_4: x_5_1 + x_7_4 - y_5_7_1_4 <= 1
 c1_5_6_2_1: x_5_2 + x_6_1 - y_5_6_2_1 <= 1
 c1_5_6_2_2: x_5_2 + x_6_2 - y_5_6_2_2 <= 1
 c1_5_6_2_3: x_5_2 + x_6_3 - y_5_6_2_3 <= 1
 c1_5_6_2_4: x_5_2 + x_6_4 - y_5_6_2_4 <= 1
 c1_5_7_2_1: x_5_2 + x_7_1 - y_5_7_2_1 <= 1
 c1_5_7_2_2: x_5_2 + x_7_2 - y_5_7_2_2 <= 1
 c1_5_7_2_3: x_5_2 + x_7_3 - y_5_7_2_3 <= 1
 c1_5_7_2_4: x_5_2 + x_7_4 - y_5_7_2_4 <= 1
 c1_5_8_2_4: x_5_2 + x_8_4 - y_5_8_2_4 <= 1
 c1_5_9_2_4: x_5_2 + x_9_4 - y_5_9_2_4 <= 1
 c1_5_6_3_3: x_5_3 + x_6_3 - y_5_6_3_3 <= 1
 c1_5_6_3_4: x_5_3 + x_6_4 - y_5_6_3_4 <= 1
 c1_5_7_3_3: x_5_3 + x_7_3 - y_5_7_3_3 <= 1
 c1_5_7_3_4: x_5_3 + x_7_4 - y_5_7_3_4 <= 1
 c1_5_6_4_4: x_5_4 + x_6_4 - y_5_6_4_4 <= 1
 c1_5_7_4_4: x_5_4 + x_7_4 - y_5_7_4_4 <= 1
 c1_6_7_1_1: x_6_1 + x_7_1 - y_6_7_1_1 <= 1
 c1_6_8_1_1: x_6_1 + x_8_1 - y_6_8_1_1 <= 1
 c1_6_8_1_4: x_6_1 + x_8_4 - y_6_8_1_4 <= 1
 c1_6_7_2_1: x_6_2 + x_7_1 - y_6_7_2_1 <= 1
 c1_6_7_2_2: x_6_2 + x_7_2 - y_6_7_2_2 <= 1
 c1_6_8_2_1: x_6_2 + x_8_1 - y_6_8_2_1 <= 1
 c1_6_8_2_2: x_6_2 + x_8_2 - y_6_8_2_2 <= 1
 c1_6_8_2_3: x_6_2 + x_8_3 - y_6_8_2_3 <= 1
 c1_6_8_2_4: x_6_2 + x_8_4 - y_6_8_2_4 <= 1
 c1_6_9_2_1: x_6_2 + x_9_1 - y_6_9_2_1 <= 1
 c1_6_9_2_4: x_6_2 + x_9_4 - y_6_9_2_4 <= 1
 c1_6_7_3_1: x_6_3 + x_7_1 - y_6_7_3_1 <= 1
 c1_6_7_3_2: x_6_3 + x_7_2 - y_6_7_3_2 <= 1
 c1_6_7_3_3: x_6_3 + x_7_3 - y_6_7_3_3 <= 1
 c1_6_7_3_4: x_6_3 + x_7_4 - y_6_7_3_4 <= 1
 c1_6_8_3_3: x_6_3 + x_8_3 - y_6_8_3_3 <= 1
 c1_6_8_3_4: x_6_3 + x_8_4 - y_6_8_3_4 <= 1
 c1_6_9_3_4: x_6_3 + x_9_4 - y_6_9_3_4 <= 1
 c1_6_7_4_1: x_6_4 + x_7_1 - y_6_7_4_1 <= 1
 c1_6_7_4_4: x_6_4 + x_7_4 - y_6_7_4_4 <= 1
 c1_6_8_4_4: x_6_4 + x_8_4 - y_6_8_4_4 <= 1
 c1_7_8_1_1: x_7_1 + x_8_1 - y_7_8_1_1 <= 1
 c1_7_8_1_4: x_7_1 + x_8_4 - y_7_8_1_4 <= 1
 c1_7_9_1_1: x_7_1 + x_9_1 - y_7_9_1_1 <= 1
 c1_7_9_1_4: x_7_1 + x_9_4 - y_7_9_1_4 <= 1
 c1_7_8_2_1: x_7_2 + x_8_1 - y_7_8_2_1 <= 1
 c1_7_8_2_2: x_7_2 + x_8_2 - y_7_8_2_2 <= 1
 c1_7_8_2_3: x_7_2 + x_8_3 - y_7_8_2_3 <= 1
 c1_7_8_2_4: x_7_2 + x_8_4 - y_7_8_2_4 <= 1
 c1_7_9_2_1: x_7_2 + x_9_1 - y_7_9_2_1 <= 1
 c1_7_9_2_2: x_7_2 + x_9_2 - y_7_9_2_2 <= 1
 c1_7_9_2_3: x_7_2 + x_9_3 - y_7_9_2_3 <= 1
 c1_7_9_2_4: x_7_2 + x_9_4 - y_7_9_2_4 <= 1
 c1_7_8_3_3: x_7_3 + x_8_3 - y_7_8_3_3 <= 1
 c1_7_8_3_4: x_7_3 + x_8_4 - y_7_8_3_4 <= 1
 c1_7_9_3_3: x_7_3 + x_9_3 - y_7_9_3_3 <= 1
 c1_7_9_3_4: x_7_3 + x_9_4 - y_7_9_3_4 <= 1
 c1_7_8_4_4: x_7_4 + x_8_4 - y_7_8_4_4 <= 1
 c1_7_9_4_4: x_7_4 + x_9_4 - y_7_9_4_4 <= 1
 c1_8_9_1_1: x_8_1 + x_9_1 - y_8_9_1_1 <= 1
 c1_8_9_2_1: x_8_2 + x_9_1 - y_8_9_2_1 <= 1
 c1_8_9_2_2: x_8_2 + x_9_2 - y_8_9_2_2 <= 1
 c1_8_9_3_3: x_8_3 + x_9_3 - y_8_9_3_3 <= 1
 c1_8_9_3_4: x_8_3 + x_9_4 - y_8_9_3_4 <= 1
 c1_8_9_4_4: x_8_4 + x_9_4 - y_8_9_4_4 <= 1
 c2_1: x_1_1 + x_1_2 + x_1_3 + x_1_4 = 1
 c2_2: x_2_1 + x_2_2 + x_2_3 + x_2_4 = 1
 c2_3: x_3_1 + x_3_2 + x_3_3 + x_3_4 = 1
 c2_4: x_4_1 + x_4_2 + x_4_3 + x_4_4 = 1
 c2_5: x_5_1 + x_5_2 + x_5_3 + x_5_4 = 1
 c2_6: x_6_1 + x_6_2 + x_6_3 + x_6_4 = 1
 c2_7: x_7_1 + x_7_2 + x_7_3 + x_7_4 = 1
 c2_8: x_8_1 + x_8_2 + x_8_3 + x_8_4 = 1
 c2_9: x_9_1 + x_9_2 + x_9_3 + x_9_4 = 1
Bounds
 0 <= y_1_2_1_1 <= 1
 0 <= y_1_2_1_2 <= 1
 0 <= y_1_2_1_3 <= 1
 0 <= y_1_2_1_4 <= 1
 0 <= y_1_2_2_1 <= 1
 0 <= y_1_2_2_2 <= 1
 0 <= y_1_2_2_3 <= 1
 0 <= y_1_2_2_4 <= 1
 0 <= y_1_2_3_1 <= 1
 0 <= y_1_2_3_2 <= 1
 0 <= y_1_2_3_3 <= 1
 0 <= y_1_2_3_4 <= 1
 0 <= y_1_2_4_1 <= 1
 0 <= y_1_2_4_2 <= 1
 0 <= y_1_2_4_3 <= 1
 0 <= y_1_2_4_4 <= 1
 0 <= y_1_3_1_1 <= 1
 0 <= y_1_3_1_2 <= 1
 0 <= y_1_3_1_3 <= 1
 0 <= y_1_3_1_4 <= 1
 0 <= y_1_3_2_1 <= 1
 0 <= y_1_3_2_2 <= 1
 0 <= y_1_3_2_3 <= 1
 0 <= y_1_3_2_4 <= 1
 0 <= y_1_3_3_1 <= 1
 0 <= y_1_3_3_2 <= 1
 0 <= y_1_3_3_3 <= 1
 0 <= y_1_3_3_4 <= 1
 0 <= y_1_3_4_1 <= 1
 0 <= y_1_3_4_2 <= 1
 0 <= y_1_3_4_3 <= 1
 0 <= y_1_3_4_4 <= 1
 0 <= y_1_4_1_1 <= 1
 0 <= y_1_4_1_2 <= 1
 0 <= y_1_4_1_3 <= 1
 0 <= y_1_4_1_4 <= 1
 0 <= y_1_4_2_1 <= 1
 0 <= y_1_4_2_2 <= 1
 0 <= y_1_4_2_3 <= 1
 0 <= y_1_4_2_4 <= 1
 0 <= y_1_4_3_1 <= 1
 0 <= y_1_4_3_2 <= 1
 0 <= y_1_4_3_3 <= 1
 0 <= y_1_4_3_4 <= 1
 0 <= y_1_4_4_1 <= 1
 0 <= y_1_4_4_2 <= 1
 0 <= y_1_4_4_3 <= 1
 0 <= y_1_4_4_4 <= 1
 0 <= y_1_5_1_1 <= 1
 0 <= y_1_5_1_2 <= 1
 0 <= y_1_5_1_3 <= 1
 0 <= y_1_5_1_4 <= 1
 0 <= y_1_5_2_1 <= 1
 0 <= y_1_5_2_2 <= 1
 0 <= y_1_5_2_3 <= 1
 0 <= y_1_5_2_4 <= 1
 0 <= y_1_5_3_1 <= 1
 0 <= y_1_5_3_2 <= 1
 0 <= y_1_5_3_3 <= 1
 0 <= y_1_5_3_4 <= 1
 0 <= y_1_5_4_1 <= 1
 0 <= y_1_5_4_2 <= 1
 0 <= y_1_5_4_3 <= 1
 0 <= y_1_5_4_4 <= 1
 0 <= y_1_6_1_1 <= 1
 0 <= y_1_6_1_2 <= 1
 0 <= y_1_6_1_3 <= 1
 0 <= y_1_6_1_4 <= 1
 0 <= y_1_6_2_1 <= 1
 0 <= y_1_6_2_2 <= 1
 0 <= y_1_6_2_3 <= 1
 0 <= y_1_6_2_4 <= 1
 0 <= y_1_6_3_1 <= 1
 0 <= y_1_6_3_2 <= 1
 0 <= y_1_6_3_3 <= 1
 0 <= y_1_6_3_4 <= 1
 0 <= y_1_6_4_1 <= 1
 0 <= y_1_6_4_2 <= 1
 0 <= y_1_6_4_3 <= 1
 0 <= y_1_6_4_4 <= 1
 0 <= y_1_7_1_1 <= 1
 0 <= y_1_7_1_2 <= 1
 0 <= y_1_7_1_3 <= 1
 0 <= y_1_7_1_4 <= 1
 0 <= y_1_7_2_1 <= 1
 0 <= y_1_7_2_2 <= 1
 0 <= y_1_7_2_3 <= 1
 0 <= y_1_7_2_4 <= 1
 0 <= y_1_7_3_1 <= 1
 0 <= y_1_7_3_2 <= 1
 0 <= y_1_7_3_3 <= 1
 0 <= y_1_7_3_4 <= 1
 0 <= y_1_7_4_1 <= 1
 0 <= y_1_7_4_2 <= 1
 0 <= y_1_7_4_3 <= 1
 0 <= y_1_7_4_4 <= 1
 0 <= y_1_8_1_1 <= 1
 0 <= y_1_8_1_2 <= 1
 0 <= y_1_8_1_3 <= 1
 0 <= y_1_8_1_4 <= 1
 0 <= y_1_8_2_1 <= 1
 0 <= y_1_8_2_2 <= 1
 0 <= y_1_8_2_3 <= 1
 0 <= y_1_8_2_4 <= 1
 0 <= y_1_8_3_1 <= 1
 0 <= y_1_8_3_2 <= 1
 0 <= y_1_8_3_3 <= 1
 0 <= y_1_8_3_4 <= 1
 0 <= y_1_8_4_1 <= 1
 0 <= y_1_8_4_2 <= 1
 0 <= y_1_8_4_3 <= 1
 0 <= y_1_8_4_4 <= 1
 0 <= y_1_9_1_1 <= 1
 0 <= y_1_9_1_2 <= 1
 0 <= y_1_9_1_3 <= 1
 0 <= y_1_9_1_4 <= 1
 0 <= y_1_9_2_1 <= 1
 0 <= y_1_9_2_2 <= 1
 0 <= y_1_9_2_3 <= 1
 0 <= y_1_9_2_4 <= 1
 0 <= y_1_9_3_1 <= 1
 0 <= y_1_9_3_2 <= 1
 0 <= y_1_9_3_3 <= 1
 0 <= y_1_9_3_4 <= 1
 0 <= y_1_9_4_1 <= 1
 0 <= y_1_9_4_2 <= 1
 0 <= y_1_9_4_3 <= 1
 0 <= y_1_9_4_4 <= 1
 0 <= y_2_3_1_1 <= 1
 0 <= y_2_3_1_2 <= 1
 0 <= y_2_3_1_3 <= 1
 0 <= y_2_3_1_4 <= 1
 0 <= y_2_3_2_1 <= 1
 0 <= y_2_3_2_2 <= 1
 0 <= y_2_3_2_3 <= 1
 0 <= y_2_3_2_4 <= 1
 0 <= y_2_3_3_1 <= 1
 0 <= y_2_3_3_2 <= 1
 0 <= y_2_3_3_3 <= 1
 0 <= y_2_3_3_4 <= 1
 0 <= y_2_3_4_1 <= 1
 0 <= y_2_3_4_2 <= 1
 0 <= y_2_3_4_3 <= 1
 0 <= y_2_3_4_4 <= 1
 0 <= y_2_4_1_1 <= 1
 0 <= y_2_4_1_2 <= 1
 0 <= y_2_4_1_3 <= 1
 0 <= y_2_4_1_4 <= 1
 0 <= y_2_4_2_1 <= 1
 0 <= y_2_4_2_2 <= 1
 0 <= y_2_4_2_3 <= 1
 0 <= y_2_4_2_4 <= 1
 0 <= y_2_4_3_1 <= 1
 0 <= y_2_4_3_2 <= 1
 0 <= y_2_4_3_3 <= 1
 0 <= y_2_4_3_4 <= 1
 0 <= y_2_4_4_1 <= 1
 0 <= y_2_4_4_2 <= 1
 0 <= y_2_4_4_3 <= 1
 0 <= y_2_4_4_4 <= 1
 0 <= y_2_5_1_1 <= 1
 0 <= y_2_5_1_2 <= 1
 0 <= y_2_5_1_3 <= 1
 0 <= y_2_5_1_4 <= 1
 0 <= y_2_5_2_1 <= 1
 0 <= y_2_5_2_2 <= 1
 0 <= y_2_5_2_3 <= 1
 0 <= y_2_5_2_4 <= 1
 0 <= y_2_5_3_1 <= 1
 0 <= y_2_5_3_2 <= 1
 0 <= y_2_5_3_3 <= 1
 0 <= y_2_5_3_4 <= 1
 0 <= y_2_5_4_1 <= 1
 0 <= y_2_5_4_2 <= 1
 0 <= y_2_5_4_3 <= 1
 0 <= y_2_5_4_4 <= 1
 0 <= y_2_6_1_1 <= 1
 0 <= y_2_6_1_2 <= 1
 0 <= y_2_6_1_3 <= 1
 0 <= y_2_6_1_4 <= 1
 0 <= y_2_6_2_1 <= 1
 0 <= y_2_6_2_2 <= 1
 0 <= y_2_6_2_3 <= 1
 0 <= y_2_6_2_4 <= 1
 0 <= y_2_6_3_1 <= 1
 0 <= y_2_6_3_2 <= 1
 0 <= y_2_6_3_3 <= 1
 0 <= y_2_6_3_4 <= 1
 0 <= y_2_6_4_1 <= 1
 0 <= y_2_6_4_2 <= 1
 0 <= y_2_6_4_3 <= 1
 0 <= y_2_6_4_4 <= 1
 0 <= y_2_7_1_1 <= 1
 0 <= y_2_7_1_2 <= 1
 0 <= y_2_7_1_3 <= 1
 0 <= y_2_7_1_4 <= 1
 0 <= y_2_7_2_1 <= 1
 0 <= y_2_7_2_2 <= 1
 0 <= y_2_7_2_3 <= 1
 0 <= y_2_7_2_4 <= 1
 0 <= y_2_7_3_1 <= 1
 0 <= y_2_7_3_2 <= 1
 0 <= y_2_7_3_3 <= 1
 0 <= y_2_7_3_4 <= 1
 0 <= y_2_7_4_1 <= 1
 0 <= y_2_7_4_2 <= 1
 0 <= y_2_7_4_3 <= 1
 0 <= y_2_7_4_4 <= 1
 0 <= y_2_8_1_1 <= 1
 0 <= y_2_8_1_2 <= 1
 0 <= y_2_8_1_3 <= 1
 0 <= y_2_8_1_4 <= 1
 0 <= y_2_8_2_1 <= 1
 0 <= y_2_8_2_2 <= 1
 0 <= y_2_8_2_3 <= 1
 0 <= y_2_8_2_4 <= 1
 0 <= y_2_8_3_1 <= 1
 0 <= y_2_8_3_2 <= 1
 0 <= y_2_8_3_3 <= 1
 0 <= y_2_8_3_4 <= 1
 0 <= y_2_8_4_1 <= 1
 0 <= y_2_8_4_2 <= 1
 0 <= y_2_8_4_3 <= 1
 0 <= y_2_8_4_4 <= 1
 0 <= y_2_9_1_1 <= 1
 0 <= y_2_9_1_2 <= 1
 0 <= y_2_9_1_3 <= 1
 0 <= y_2_9_1_4 <= 1
 0 <= y_2_9_2_1 <= 1
 0 <= y_2_9_2_2 <= 1
 0 <= y_2_9_2_3 <= 1
 0 <= y_2_9_2_4 <= 1
 0 <= y_2_9_3_1 <= 1
 0 <= y_2_9_3_2 <= 1
 0 <= y_2_9_3_3 <= 1
 0 <= y_2_9_3_4 <= 1
 0 <= y_2_9_4_1 <= 1
 0 <= y_2_9_4_2 <= 1
 0 <= y_2_9_4_3 <= 1
 0 <= y_2_9_4_4 <= 1
 0 <= y_3_4_1_1 <= 1
 0 <= y_3_4_1_2 <= 1
 0 <= y_3_4_1_3 <= 1
 0 <= y_3_4_1_4 <= 1
 0 <= y_3_4_2_1 <= 1
 0 <= y_3_4_2_2 <= 1
 0 <= y_3_4_2_3 <= 1
 0 <= y_3_4_2_4 <= 1
 0 <= y_3_4_3_1 <= 1
 0 <= y_3_4_3_2 <= 1
 0 <= y_3_4_3_3 <= 1
 0 <= y_3_4_3_4 <= 1
 0 <= y_3_4_4_1 <= 1
 0 <= y_3_4_4_2 <= 1
 0 <= y_3_4_4_3 <= 1
 0 <= y_3_4_4_4 <= 1
 0 <= y_3_5_1_1 <= 1
 0 <= y_3_5_1_2 <= 1
 0 <= y_3_5_1_3 <= 1
 0 <= y_3_5_1_4 <= 1
 0 <= y_3_5_2_1 <= 1
 0 <= y_3_5_2_2 <= 1
 0 <= y_3_5_2_3 <= 1
 0 <= y_3_5_2_4 <= 1
 0 <= y_3_5_3_1 <= 1
 0 <= y_3_5_3_2 <= 1
 0 <= y_3_5_3_3 <= 1
 0 <= y_3_5_3_4 <= 1
 0 <= y_3_5_4_1 <= 1
 0 <= y_3_5_4_2 <= 1
 0 <= y_3_5_4_3 <= 1
 0 <= y_3_5_4_4 <= 1
 0 <= y_3_6_1_1 <= 1
 0 <= y_3_6_1_2 <= 1
 0 <= y_3_6_1_3 <= 1
 0 <= y_3_6_1_4 <= 1
 0 <= y_3_6_2_1 <= 1
 0 <= y_3_6_2_2 <= 1
 0 <= y_3_6_2_3 <= 1
 0 <= y_3_6_2_4 <= 1
 0 <= y_3_6_3_1 <= 1
 0 <= y_3_6_3_2 <= 1
 0 <= y_3_6_3_3 <= 1
 0 <= y_3_6_3_4 <= 1
 0 <= y_3_6_4_1 <= 1
 0 <= y_3_6_4_2 <= 1
 0 <= y_3_6_4_3 <= 1
 0 <= y_3_6_4_4 <= 1
 0 <= y_3_7_1_1 <= 1
 0 <= y_3_7_1_2 <= 1
 0 <= y_3_7_1_3 <= 1
 0 <= y_3_7_1_4 <= 1
 0 <= y_3_7_2_1 <= 1
 0 <= y_3_7_2_2 <= 1
 0 <= y_3_7_2_3 <= 1
 0 <= y_3_7_2_4 <= 1
 0 <= y_3_7_3_1 <= 1
 0 <= y_3_7_3_2 <= 1
 0 <= y_3_7_3_3 <= 1
 0 <= y_3_7_3_4 <= 1
 0 <= y_3_7_4_1 <= 1
 0 <= y_3_7_4_2 <= 1
 0 <= y_3_7_4_3 <= 1
 0 <= y_3_7_4_4 <= 1
 0 <= y_3_8_1_1 <= 1
 0 <= y_3_8_1_2 <= 1
 0 <= y_3_8_1_3 <= 1
 0 <= y_3_8_1_4 <= 1
 0 <= y_3_8_2_1 <= 1
 0 <= y_3_8_2_2 <= 1
 0 <= y_3_8_2_3 <= 1
 0 <= y_3_8_2_4 <= 1
 0 <= y_3_8_3_1 <= 1
 0 <= y_3_8_3_2 <= 1
 0 <= y_3_8_3_3 <= 1
 0 <= y_3_8_3_4 <= 1
 0 <= y_3_8_4_1 <= 1
 0 <= y_3_8_4_2 <= 1
 0 <= y_3_8_4_3 <= 1
 0 <= y_3_8_4_4 <= 1
 0 <= y_3_9_1_1 <= 1
 0 <= y_3_9_1_2 <= 1
 0 <= y_3_9_1_3 <= 1
 0 <= y_3_9_1_4 <= 1
 0 <= y_3_9_2_1 <= 1
 0 <= y_3_9_2_2 <= 1
 0 <= y_3_9_2_3 <= 1
 0 <= y_3_9_2_4 <= 1
 0 <= y_3_9_3_1 <= 1
 0 <= y_3_9_3_2 <= 1
 0 <= y_3_9_3_3 <= 1
 0 <= y_3_9_3_4 <= 1
 0 <= y_3_9_4_1 <= 1
 0 <= y_3_9_4_2 <= 1
 0 <= y_3_9_4_3 <= 1
 0 <= y_3_9_4_4 <= 1
 0 <= y_4_5_1_1 <= 1
 0 <= y_4_5_1_2 <= 1
 0 <= y_4_5_1_3 <= 1
 0 <= y_4_5_1_4 <= 1
 0 <= y_4_5_2_1 <= 1
 0 <= y_4_5_2_2 <= 1
 0 <= y_4_5_2_3 <= 1
 0 <= y_4_5_2_4 <= 1
 0 <= y_4_5_3_1 <= 1
 0 <= y_4_5_3_2 <= 1
 0 <= y_4_5_3_3 <= 1
 0 <= y_4_5_3_4 <= 1
 0 <= y_4_5_4_1 <= 1
 0 <= y_4_5_4_2 <= 1
 0 <= y_4_5_4_3 <= 1
 0 <= y_4_5_4_4 <= 1
 0 <= y_4_6_1_1 <= 1
 0 <= y_4_6_1_2 <= 1
 0 <= y_4_6_1_3 <= 1
 0 <= y_4_6_1_4 <= 1
 0 <= y_4_6_2_1 <= 1
 0 <= y_4_6_2_2 <= 1
 0 <= y_4_6_2_3 <= 1
 0 <= y_4_6_2_4 <= 1
 0 <= y_4_6_3_1 <= 1
 0 <= y_4_6_3_2 <= 1
 0 <= y_4_6_3_3 <= 1
 0 <= y_4_6_3_4 <= 1
 0 <= y_4_6_4_1 <= 1
 0 <= y_4_6_4_2 <= 1
 0 <= y_4_6_4_3 <= 1
 0 <= y_4_6_4_4 <= 1
 0 <= y_4_7_1_1 <= 1
 0 <= y_4_7_1_2 <= 1
 0 <= y_4_7_1_3 <= 1
 0 <= y_4_7_1_4 <= 1
 0 <= y_4_7_2_1 <= 1
 0 <= y_4_7_2_2 <= 1
 0 <= y_4_7_2_3 <= 1
 0 <= y_4_7_2_4 <= 1
 0 <= y_4_7_3_1 <= 1
 0 <= y_4_7_3_2 <= 1
 0 <= y_4_7_3_3 <= 1
 0 <= y_4_7_3_4 <= 1
 0 <= y_4_7_4_1 <= 1
 0 <= y_4_7_4_2 <= 1
 0 <= y_4_7_4_3 <= 1
 0 <= y_4_7_4_4 <= 1
 0 <= y_4_8_1_1 <= 1
 0 <= y_4_8_1_2 <= 1
 0 <= y_4_8_1_3 <= 1
 0 <= y_4_8_1_4 <= 1
 0 <= y_4_8_2_1 <= 1
 0 <= y_4_8_2_2 <= 1
 0 <= y_4_8_2_3 <= 1
 0 <= y_4_8_2_4 <= 1
 0 <= y_4_8_3_1 <= 1
 0 <= y_4_8_3_2 <= 1
 0 <= y_4_8_3_3 <= 1
 0 <= y_4_8_3_4 <= 1
 0 <= y_4_8_4_1 <= 1
 0 <= y_4_8_4_2 <= 1
 0 <= y_4_8_4_3 <= 1
 0 <= y_4_8_4_4 <= 1
 0 <= y_4_9_1_1 <= 1
 0 <= y_4_9_1_2 <= 1
 0 <= y_4_9_1_3 <= 1
 0 <= y_4_9_1_4 <= 1
 0 <= y_4_9_2_1 <= 1
 0 <= y_4_9_2_2 <= 1
 0 <= y_4_9_2_3 <= 1
 0 <= y_4_9_2_4 <= 1
 0 <= y_4_9_3_1 <= 1
 0 <= y_4_9_3_2 <= 1
 0 <= y_4_9_3_3 <= 1
 0 <= y_4_9_3_4 <= 1
 0 <= y_4_9_4_1 <= 1
 0 <= y_4_9_4_2 <= 1
 0 <= y_4_9_4_3 <= 1
 0 <= y_4_9_4_4 <= 1
 0 <= y_5_6_1_1 <= 1
 0 <= y_5_6_1_2 <= 1
 0 <= y_5_6_1_3 <= 1
 0 <= y_5_6_1_4 <= 1
 0 <= y_5_6_2_1 <= 1
 0 <= y_5_6_2_2 <= 1
 0 <= y_5_6_2_3 <= 1
 0 <= y_5_6_2_4 <= 1
 0 <= y_5_6_3_1 <= 1
 0 <= y_5_6_3_2 <= 1
 0 <= y_5_6_3_3 <= 1
 0 <= y_5_6_3_4 <= 1
 0 <= y_5_6_4_1 <= 1
 0 <= y_5_6_4_2 <= 1
 0 <= y_5_6_4_3 <= 1
 0 <= y_5_6_4_4 <= 1
 0 <= y_5_7_1_1 <= 1
 0 <= y_5_7_1_2 <= 1
 0 <= y_5_7_1_3 <= 1
 0 <= y_5_7_1_4 <= 1
 0 <= y_5_7_2_1 <= 1
 0 <= y_5_7_2_2 <= 1
 0 <= y_5_7_2_3 <= 1
 0 <= y_5_7_2_4 <= 1
 0 <= y_5_7_3_1 <= 1
 0 <= y_5_7_3_2 <= 1
 0 <= y_5_7_3_3 <= 1
 0 <= y_5_7_3_4 <= 1
 0 <= y_5_7_4_1 <= 1
 0 <= y_5_7_4_2 <= 1
 0 <= y_5_7_4_3 <= 1
 0 <= y_5_7_4_4 <= 1
 0 <= y_5_8_1_1 <= 1
 0 <= y_5_8_1_2 <= 1
 0 <= y_5_8_1_3 <= 1
 0 <= y_5_8_1_4 <= 1
 0 <= y_5_8_2_1 <= 1
 0 <= y_5_8_2_2 <= 1
 0 <= y_5_8_2_3 <= 1
 0 <= y_5_8_2_4 <= 1
 0 <= y_5_8_3_1 <= 1
 0 <= y_5_8_3_2 <= 1
 0 <= y_5_8_3_3 <= 1
 0 <= y_5_8_3_4 <= 1
 0 <= y_5_8_4_1 <= 1
 0 <= y_5_8_4_2 <= 1
 0 <= y_5_8_4_3 <= 1
 0 <= y_5_8_4_4 <= 1
 0 <= y_5_9_1_1 <= 1
 0 <= y_5_9_1_2 <= 1
 0 <= y_5_9_1_3 <= 1
 0 <= y_5_9_1_4 <= 1
 0 <= y_5_9_2_1 <= 1
 0 <= y_5_9_2_2 <= 1
 0 <= y_5_9_2_3 <= 1
 0 <= y_5_9_2_4 <= 1
 0 <= y_5_9_3_1 <= 1
 0 <= y_5_9_3_2 <= 1
 0 <= y_5_9_3_3 <= 1
 0 <= y_5_9_3_4 <= 1
 0 <= y_5_9_4_1 <= 1
 0 <= y_5_9_4_2 <= 1
 0 <= y_5_9_4_3 <= 1
 0 <= y_5_9_4_4 <= 1
 0 <= y_6_7_1_1 <= 1
 0 <= y_6_7_1_2 <= 1
 0 <= y_6_7_1_3 <= 1
 0 <= y_6_7_1_4 <= 1
 0 <= y_6_7_2_1 <= 1
 0 <= y_6_7_2_2 <= 1
 0 <= y_6_7_2_3 <= 1
 0 <= y_6_7_2_4 <= 1
 0 <= y_6_7_3_1 <= 1
 0 <= y_6_7_3_2 <= 1
 0 <= y_6_7_3_3 <= 1
 0 <= y_6_7_3_4 <= 1
 0 <= y_6_7_4_1 <= 1
 0 <= y_6_7_4_2 <= 1
 0 <= y_6_7_4_3 <= 1
 0 <= y_6_7_4_4 <= 1
 0 <= y_6_8_1_1 <= 1
 0 <= y_6_8_1_2 <= 1
 0 <= y_6_8_1_3 <= 1
 0 <= y_6_8_1_4 <= 1
 0 <= y_6_8_2_1 <= 1
 0 <= y_6_8_2_2 <= 1
 0 <= y_6_8_2_3 <= 1
 0 <= y_6_8_2_4 <= 1
 0 <= y_6_8_3_1 <= 1
 0 <= y_6_8_3_2 <= 1
 0 <= y_6_8_3_3 <= 1
 0 <= y_6_8_3_4 <= 1
 0 <= y_6_8_4_1 <= 1
 0 <= y_6_8_4_2 <= 1
 0 <= y_6_8_4_3 <= 1
 0 <= y_6_8_4_4 <= 1
 0 <= y_6_9_1_1 <= 1
 0 <= y_6_9_1_2 <= 1
 0 <= y_6_9_1_3 <= 1
 0 <= y_6_9_1_4 <= 1
 0 <= y_6_9_2_1 <= 1
 0 <= y_6_9_2_2 <= 1
 0 <= y_6_9_2_3 <= 1
 0 <= y_6_9_2_4 <= 1
 0 <= y_6_9_3_1 <= 1
 0 <= y_6_9_3_2 <= 1
 0 <= y_6_9_3_3 <= 1
 0 <= y_6_9_3_4 <= 1
 0 <= y_6_9_4_1 <= 1
 0 <= y_6_9_4_2 <= 1
 0 <= y_6_9_4_3 <= 1
 0 <= y_6_9_4_4 <= 1
 0 <= y_7_8_1_1 <= 1
 0 <= y_7_8_1_2 <= 1
 0 <= y_7_8_1_3 <= 1
 0 <= y_7_8_1_4 <= 1
 0 <= y_7_8_2_1 <= 1
 0 <= y_7_8_2_2 <= 1
 0 <= y_7_8_2_3 <= 1
 0 <= y_7_8_2_4 <= 1
 0 <= y_7_8_3_1 <= 1
 0 <= y_7_8_3_2 <= 1
 0 <= y_7_8_3_3 <= 1
 0 <= y_7_8_3_4 <= 1
 0 <= y_7_8_4_1 <= 1
 0 <= y_7_8_4_2 <= 1
 0 <= y_7_8_4_3 <= 1
 0 <= y_7_8_4_4 <= 1
 0 <= y_7_9_1_1 <= 1
 0 <= y_7_9_1_2 <= 1
 0 <= y_7_9_1_3 <= 1
 0 <= y_7_9_1_4 <= 1
 0 <= y_7_9_2_1 <= 1
 0 <= y_7_9_2_2 <= 1
 0 <= y_7_9_2_3 <= 1
 0 <= y_7_9_2_4 <= 1
 0 <= y_7_9_3_1 <= 1
 0 <= y_7_9_3_2 <= 1
 0 <= y_7_9_3_3 <= 1
 0 <= y_7_9_3_4 <= 1
 0 <= y_7_9_4_1 <= 1
 0 <= y_7_9_4_2 <= 1
 0 <= y_7_9_4_3 <= 1
 0 <= y_7_9_4_4 <= 1
 0 <= y_8_9_1_1 <= 1
 0 <= y_8_9_1_2 <= 1
 0 <= y_8_9_1_3 <= 1
 0 <= y_8_9_1_4 <= 1
 0 <= y_8_9_2_1 <= 1
 0 <= y_8_9_2_2 <= 1
 0 <= y_8_9_2_3 <= 1
 0 <= y_8_9_2_4 <= 1
 0 <= y_8_9_3_1 <= 1
 0 <= y_8_9_3_2 <= 1
 0 <= y_8_9_3_3 <= 1
 0 <= y_8_9_3_4 <= 1
 0 <= y_8_9_4_1 <= 1
 0 <= y_8_9_4_2 <= 1
 0 <= y_8_9_4_3 <= 1
 0 <= y_8_9_4_4 <= 1
Binaries
 x_1_1
 x_1_2
 x_1_3
 x_1_4
 x_2_1
 x_2_2
 x_2_3
 x_2_4
 x_3_1
 x_3_2
 x_3_3
 x_3_4
 x_4_1
 x_4_2
 x_4_3
 x_4_4
 x_5_1
 x_5_2
 x_5_3
 x_5_4
 x_6_1
 x_6_2
 x_6_3
 x_6_4
 x_7_1
 x_7_2
 x_7_3
 x_7_4
 x_8_1
 x_8_2
 x_8_3
 x_8_4
 x_9_1
 x_9_2
 x_9_3
 x_9_4
End
